FE
1.0
       13.6452999115         0.0000000000         0.0000000000
        0.0000000000        13.6452999115         0.0000000000
        0.0000000000         0.0000000000        12.1722002029
   Br   Mn    N    C    H
   16    4    8   40  112
Direct
     0.168785584         0.331214434         0.490248034  Br1   1.00000   1.00000   0.00000   0.00000   0.00000   0.00000   0.00000   0.00000
     0.831214399         0.668785601         0.490248034  Br2   1.00000   1.00000   0.00000   0.00000   0.00000   0.00000   0.00000   0.00000
     0.331214434         0.831214399         0.509752045  Br3   1.00000   1.00000   0.00000   0.00000   0.00000   0.00000   0.00000   0.00000
     0.668785601         0.168785584         0.509752045  Br4   1.00000   1.00000   0.00000   0.00000   0.00000   0.00000   0.00000   0.00000
     0.184913980         0.110495803         0.734098083  Br5   1.00000   1.00000   0.00000   0.00000   0.00000   0.00000   0.00000   0.00000
     0.815085950         0.889504110         0.734098083  Br6   1.00000   1.00000   0.00000   0.00000   0.00000   0.00000   0.00000   0.00000
     0.110495803         0.815085950         0.265901917  Br7   1.00000   1.00000   0.00000   0.00000   0.00000   0.00000   0.00000   0.00000
     0.889504110         0.184913980         0.265901917  Br8   1.00000   1.00000   0.00000   0.00000   0.00000   0.00000   0.00000   0.00000
     0.315086020         0.610495890         0.265901917  Br9   1.00000   1.00000   0.00000   0.00000   0.00000   0.00000   0.00000   0.00000
     0.684914050         0.389504180         0.265901917  Br10   1.00000   1.00000   0.00000   0.00000   0.00000   0.00000   0.00000   0.00000
     0.389504180         0.315086020         0.734098083  Br11   1.00000   1.00000   0.00000   0.00000   0.00000   0.00000   0.00000   0.00000
     0.610495890         0.684914050         0.734098083  Br12   1.00000   1.00000   0.00000   0.00000   0.00000   0.00000   0.00000   0.00000
     0.105391425         0.394608549         0.796028935  Br13   1.00000   1.00000   0.00000   0.00000   0.00000   0.00000   0.00000   0.00000
     0.894608549         0.605391451         0.796028935  Br14   1.00000   1.00000   0.00000   0.00000   0.00000   0.00000   0.00000   0.00000
     0.394608549         0.894608549         0.203971065  Br15   1.00000   1.00000   0.00000   0.00000   0.00000   0.00000   0.00000   0.00000
     0.605391451         0.105391425         0.203971065  Br16   1.00000   1.00000   0.00000   0.00000   0.00000   0.00000   0.00000   0.00000
     0.214701127         0.285298890         0.683826750  Mn1   1.00000   1.00000   0.00000   0.00000   0.00000   0.00000   0.00000   0.00000
     0.785298908         0.714701092         0.683826750  Mn2   1.00000   1.00000   0.00000   0.00000   0.00000   0.00000   0.00000   0.00000
     0.285298890         0.785298908         0.316173289  Mn3   1.00000   1.00000   0.00000   0.00000   0.00000   0.00000   0.00000   0.00000
     0.714701092         0.214701127         0.316173289  Mn4   1.00000   1.00000   0.00000   0.00000   0.00000   0.00000   0.00000   0.00000
     0.279152002         0.220848016         0.097777314  N1   1.00000   1.00000   0.00000   0.00000   0.00000   0.00000   0.00000   0.00000
     0.720847946         0.779152054         0.097777314  N2   1.00000   1.00000   0.00000   0.00000   0.00000   0.00000   0.00000   0.00000
     0.220848016         0.720847946         0.902222725  N3   1.00000   1.00000   0.00000   0.00000   0.00000   0.00000   0.00000   0.00000
     0.779152054         0.279152002         0.902222725  N4   1.00000   1.00000   0.00000   0.00000   0.00000   0.00000   0.00000   0.00000
    -0.000000000         1.000000000         0.500000000  N5   1.00000   1.00000   0.00000   0.00000   0.00000   0.00000   0.00000   0.00000
     0.500000000         0.500000000         0.500000000  N6   1.00000   1.00000   0.00000   0.00000   0.00000   0.00000   0.00000   0.00000
     0.000000000         0.500000000         0.571785611  N7   1.00000   1.00000   0.00000   0.00000   0.00000   0.00000   0.00000   0.00000
     0.500000000         1.000000000         0.428214349  N8   1.00000   1.00000   0.00000   0.00000   0.00000   0.00000   0.00000   0.00000
     0.201518067         0.298481898         0.075406157  C1   1.00000   1.00000   0.00000   0.00000   0.00000   0.00000   0.00000   0.00000
     0.798481968         0.701518032         0.075406157  C2   1.00000   1.00000   0.00000   0.00000   0.00000   0.00000   0.00000   0.00000
     0.298481898         0.798481968         0.924593902  C3   1.00000   1.00000   0.00000   0.00000   0.00000   0.00000   0.00000   0.00000
     0.701518032         0.201518067         0.924593902  C4   1.00000   1.00000   0.00000   0.00000   0.00000   0.00000   0.00000   0.00000
     0.155173414         0.344826621         0.175855784  C5   1.00000   1.00000   0.00000   0.00000   0.00000   0.00000   0.00000   0.00000
     0.844826656         0.655173344         0.175855784  C6   1.00000   1.00000   0.00000   0.00000   0.00000   0.00000   0.00000   0.00000
     0.344826621         0.844826656         0.824144158  C7   1.00000   1.00000   0.00000   0.00000   0.00000   0.00000   0.00000   0.00000
     0.655173344         0.155173414         0.824144158  C8   1.00000   1.00000   0.00000   0.00000   0.00000   0.00000   0.00000   0.00000
     0.237466517         0.135945112         0.164227144  C9   1.00000   1.00000   0.00000   0.00000   0.00000   0.00000   0.00000   0.00000
     0.762533395         0.864054949         0.164227144  C10   1.00000   1.00000   0.00000   0.00000   0.00000   0.00000   0.00000   0.00000
     0.135945112         0.762533395         0.835772807  C11   1.00000   1.00000   0.00000   0.00000   0.00000   0.00000   0.00000   0.00000
     0.864054949         0.237466517         0.835772807  C12   1.00000   1.00000   0.00000   0.00000   0.00000   0.00000   0.00000   0.00000
     0.262533483         0.635945051         0.835772807  C13   1.00000   1.00000   0.00000   0.00000   0.00000   0.00000   0.00000   0.00000
     0.737466605         0.364054880         0.835772807  C14   1.00000   1.00000   0.00000   0.00000   0.00000   0.00000   0.00000   0.00000
     0.364054880         0.262533483         0.164227144  C15   1.00000   1.00000   0.00000   0.00000   0.00000   0.00000   0.00000   0.00000
     0.635945051         0.737466605         0.164227144  C16   1.00000   1.00000   0.00000   0.00000   0.00000   0.00000   0.00000   0.00000
     0.047596856         0.922989399         0.570109892  C19   1.00000   1.00000   0.00000   0.00000   0.00000   0.00000   0.00000   0.00000
     0.422989399         0.547596877         0.570109892  C21   1.00000   1.00000   0.00000   0.00000   0.00000   0.00000   0.00000   0.00000
     0.577010566         0.452403158         0.570109892  C22   1.00000   1.00000   0.00000   0.00000   0.00000   0.00000   0.00000   0.00000
     0.452403158         0.422989399         0.429890108  C23   1.00000   1.00000   0.00000   0.00000   0.00000   0.00000   0.00000   0.00000
     0.547596877         0.577010566         0.429890108  C24   1.00000   1.00000   0.00000   0.00000   0.00000   0.00000   0.00000   0.00000
     0.149554669         0.084720586         0.113888441  C33   1.00000   1.00000   0.00000   0.00000   0.00000   0.00000   0.00000   0.00000
     0.850445348         0.915279379         0.113888441  C34   1.00000   1.00000   0.00000   0.00000   0.00000   0.00000   0.00000   0.00000
     0.084720586         0.850445348         0.886111520  C35   1.00000   1.00000   0.00000   0.00000   0.00000   0.00000   0.00000   0.00000
     0.915279379         0.149554669         0.886111520  C36   1.00000   1.00000   0.00000   0.00000   0.00000   0.00000   0.00000   0.00000
     0.350445313         0.584720621         0.886111520  C37   1.00000   1.00000   0.00000   0.00000   0.00000   0.00000   0.00000   0.00000
     0.649554652         0.415279414         0.886111520  C38   1.00000   1.00000   0.00000   0.00000   0.00000   0.00000   0.00000   0.00000
     0.415279414         0.350445313         0.113888441  C39   1.00000   1.00000   0.00000   0.00000   0.00000   0.00000   0.00000   0.00000
     0.584720621         0.649554652         0.113888441  C40   1.00000   1.00000   0.00000   0.00000   0.00000   0.00000   0.00000   0.00000
     0.313655435         0.186344600        -0.014678837  C25   1.00000   1.00000   0.00000   0.00000   0.00000   0.00000   0.00000   0.00000
     0.686344565         0.813655366        -0.014678837  C26   1.00000   1.00000   0.00000   0.00000   0.00000   0.00000   0.00000   0.00000
     0.186344600         0.686344565         1.014678837  C27   1.00000   1.00000   0.00000   0.00000   0.00000   0.00000   0.00000   0.00000
     0.813655366         0.313655435         1.014678837  C28   1.00000   1.00000   0.00000   0.00000   0.00000   0.00000   0.00000   0.00000
    -0.077010601         0.952403158         0.429890108  C18   1.00000   1.00000   0.00000   0.00000   0.00000   0.00000   0.00000   0.00000
    -0.047596842         1.077010601         0.570109892  C20   1.00000   1.00000   0.00000   0.00000   0.00000   0.00000   0.00000   0.00000
     0.077010619         1.047596842         0.429890108  C17   1.00000   1.00000   0.00000   0.00000   0.00000   0.00000   0.00000   0.00000
     0.392111962         0.107888038        -0.015436703  C29   1.00000   1.00000   0.00000   0.00000   0.00000   0.00000   0.00000   0.00000
     0.607888073         0.892111927        -0.015436703  C30   1.00000   1.00000   0.00000   0.00000   0.00000   0.00000   0.00000   0.00000
     0.107888038         0.607888073         1.015436703  C31   1.00000   1.00000   0.00000   0.00000   0.00000   0.00000   0.00000   0.00000
     0.892111927         0.392111962         1.015436703  C32   1.00000   1.00000   0.00000   0.00000   0.00000   0.00000   0.00000   0.00000
     0.146472838         0.262696240         0.023498382  H1   1.00000   1.00000   0.00000   0.00000   0.00000   0.00000   0.00000   0.00000
     0.853527162         0.737303760         0.023498382  H2   1.00000   1.00000   0.00000   0.00000   0.00000   0.00000   0.00000   0.00000
     0.262696240         0.853527162         0.976501623  H3   1.00000   1.00000   0.00000   0.00000   0.00000   0.00000   0.00000   0.00000
     0.737303760         0.146472838         0.976501623  H4   1.00000   1.00000   0.00000   0.00000   0.00000   0.00000   0.00000   0.00000
     0.353527162         0.762696240         0.976501623  H5   1.00000   1.00000   0.00000   0.00000   0.00000   0.00000   0.00000   0.00000
     0.646472838         0.237303760         0.976501623  H6   1.00000   1.00000   0.00000   0.00000   0.00000   0.00000   0.00000   0.00000
     0.237303760         0.353527162         0.023498382  H7   1.00000   1.00000   0.00000   0.00000   0.00000   0.00000   0.00000   0.00000
     0.762696240         0.646472838         0.023498382  H8   1.00000   1.00000   0.00000   0.00000   0.00000   0.00000   0.00000   0.00000
     0.101440001         0.398560008         0.146253202  H9   1.00000   1.00000   0.00000   0.00000   0.00000   0.00000   0.00000   0.00000
     0.898560078         0.601439922         0.146253202  H10   1.00000   1.00000   0.00000   0.00000   0.00000   0.00000   0.00000   0.00000
     0.398560008         0.898560078         0.853746828  H11   1.00000   1.00000   0.00000   0.00000   0.00000   0.00000   0.00000   0.00000
     0.601439922         0.101440001         0.853746828  H12   1.00000   1.00000   0.00000   0.00000   0.00000   0.00000   0.00000   0.00000
     0.115163908         0.292369187         0.227338091  H13   1.00000   1.00000   0.00000   0.00000   0.00000   0.00000   0.00000   0.00000
     0.884836066         0.707630848         0.227338091  H14   1.00000   1.00000   0.00000   0.00000   0.00000   0.00000   0.00000   0.00000
     0.292369187         0.884836066         0.772661948  H15   1.00000   1.00000   0.00000   0.00000   0.00000   0.00000   0.00000   0.00000
     0.707630848         0.115163908         0.772661948  H16   1.00000   1.00000   0.00000   0.00000   0.00000   0.00000   0.00000   0.00000
     0.384836101         0.792369152         0.772661948  H17   1.00000   1.00000   0.00000   0.00000   0.00000   0.00000   0.00000   0.00000
     0.615163934         0.207630831         0.772661948  H18   1.00000   1.00000   0.00000   0.00000   0.00000   0.00000   0.00000   0.00000
     0.207630831         0.384836101         0.227338091  H19   1.00000   1.00000   0.00000   0.00000   0.00000   0.00000   0.00000   0.00000
     0.792369152         0.615163934         0.227338091  H20   1.00000   1.00000   0.00000   0.00000   0.00000   0.00000   0.00000   0.00000
     0.298218167         0.084131157         0.175695561  H21   1.00000   1.00000   0.00000   0.00000   0.00000   0.00000   0.00000   0.00000
     0.701781868         0.915868904         0.175695561  H22   1.00000   1.00000   0.00000   0.00000   0.00000   0.00000   0.00000   0.00000
     0.084131157         0.701781868         0.824304380  H23   1.00000   1.00000   0.00000   0.00000   0.00000   0.00000   0.00000   0.00000
     0.915868904         0.298218167         0.824304380  H24   1.00000   1.00000   0.00000   0.00000   0.00000   0.00000   0.00000   0.00000
     0.201781833         0.584131131         0.824304380  H25   1.00000   1.00000   0.00000   0.00000   0.00000   0.00000   0.00000   0.00000
     0.798218132         0.415868834         0.824304380  H26   1.00000   1.00000   0.00000   0.00000   0.00000   0.00000   0.00000   0.00000
     0.415868834         0.201781833         0.175695561  H27   1.00000   1.00000   0.00000   0.00000   0.00000   0.00000   0.00000   0.00000
     0.584131131         0.798218132         0.175695561  H28   1.00000   1.00000   0.00000   0.00000   0.00000   0.00000   0.00000   0.00000
     0.219045142         0.166642100         0.244988768  H29   1.00000   1.00000   0.00000   0.00000   0.00000   0.00000   0.00000   0.00000
     0.780954805         0.833357865         0.244988768  H30   1.00000   1.00000   0.00000   0.00000   0.00000   0.00000   0.00000   0.00000
     0.166642100         0.780954805         0.755011193  H31   1.00000   1.00000   0.00000   0.00000   0.00000   0.00000   0.00000   0.00000
     0.833357865         0.219045142         0.755011193  H32   1.00000   1.00000   0.00000   0.00000   0.00000   0.00000   0.00000   0.00000
     0.280954840         0.666642135         0.755011193  H33   1.00000   1.00000   0.00000   0.00000   0.00000   0.00000   0.00000   0.00000
     0.719045195         0.333357935         0.755011193  H34   1.00000   1.00000   0.00000   0.00000   0.00000   0.00000   0.00000   0.00000
     0.333357935         0.280954840         0.244988768  H35   1.00000   1.00000   0.00000   0.00000   0.00000   0.00000   0.00000   0.00000
     0.666642135         0.719045195         0.244988768  H36   1.00000   1.00000   0.00000   0.00000   0.00000   0.00000   0.00000   0.00000
     0.081731543         0.869123255         0.515374141  H39   1.00000   1.00000   0.00000   0.00000   0.00000   0.00000   0.00000   0.00000
     0.369123220         0.581731552         0.515374141  H41   1.00000   1.00000   0.00000   0.00000   0.00000   0.00000   0.00000   0.00000
     0.630876745         0.418268483         0.515374141  H42   1.00000   1.00000   0.00000   0.00000   0.00000   0.00000   0.00000   0.00000
     0.418268483         0.369123220         0.484625859  H43   1.00000   1.00000   0.00000   0.00000   0.00000   0.00000   0.00000   0.00000
     0.581731552         0.630876745         0.484625859  H44   1.00000   1.00000   0.00000   0.00000   0.00000   0.00000   0.00000   0.00000
     0.110939728         0.990622397         0.379069277  H45   1.00000   1.00000   0.00000   0.00000   0.00000   0.00000   0.00000   0.00000
     0.389060272         0.490622397         0.620930723  H49   1.00000   1.00000   0.00000   0.00000   0.00000   0.00000   0.00000   0.00000
     0.610939693         0.509377533         0.620930723  H50   1.00000   1.00000   0.00000   0.00000   0.00000   0.00000   0.00000   0.00000
     0.509377533         0.389060272         0.379069277  H51   1.00000   1.00000   0.00000   0.00000   0.00000   0.00000   0.00000   0.00000
     0.490622397         0.610939693         0.379069277  H52   1.00000   1.00000   0.00000   0.00000   0.00000   0.00000   0.00000   0.00000
     0.103126349         0.958802315         0.621286229  H55   1.00000   1.00000   0.00000   0.00000   0.00000   0.00000   0.00000   0.00000
     0.458802245         0.603126376         0.621286229  H57   1.00000   1.00000   0.00000   0.00000   0.00000   0.00000   0.00000   0.00000
     0.541197720         0.396873659         0.621286229  H58   1.00000   1.00000   0.00000   0.00000   0.00000   0.00000   0.00000   0.00000
     0.396873659         0.458802245         0.378713771  H59   1.00000   1.00000   0.00000   0.00000   0.00000   0.00000   0.00000   0.00000
     0.603126376         0.541197720         0.378713771  H60   1.00000   1.00000   0.00000   0.00000   0.00000   0.00000   0.00000   0.00000
     0.460814946         0.131126314         0.023655846  H73   1.00000   1.00000   0.00000   0.00000   0.00000   0.00000   0.00000   0.00000
     0.539185054         0.868873747         0.023655846  H74   1.00000   1.00000   0.00000   0.00000   0.00000   0.00000   0.00000   0.00000
     0.131126314         0.539185054         0.976344142  H75   1.00000   1.00000   0.00000   0.00000   0.00000   0.00000   0.00000   0.00000
     0.868873747         0.460814946         0.976344142  H76   1.00000   1.00000   0.00000   0.00000   0.00000   0.00000   0.00000   0.00000
     0.039185045         0.631126253         0.976344142  H77   1.00000   1.00000   0.00000   0.00000   0.00000   0.00000   0.00000   0.00000
     0.960814946         0.368873677         0.976344142  H78   1.00000   1.00000   0.00000   0.00000   0.00000   0.00000   0.00000   0.00000
     0.368873677         0.039185045         0.023655846  H79   1.00000   1.00000   0.00000   0.00000   0.00000   0.00000   0.00000   0.00000
     0.631126253         0.960814946         0.023655846  H80   1.00000   1.00000   0.00000   0.00000   0.00000   0.00000   0.00000   0.00000
     0.134654508         0.018809338         0.163078280  H81   1.00000   1.00000   0.00000   0.00000   0.00000   0.00000   0.00000   0.00000
     0.865345404         0.981190699         0.163078280  H82   1.00000   1.00000   0.00000   0.00000   0.00000   0.00000   0.00000   0.00000
     0.018809338         0.865345404         0.836921789  H83   1.00000   1.00000   0.00000   0.00000   0.00000   0.00000   0.00000   0.00000
     0.981190699         0.134654508         0.836921789  H84   1.00000   1.00000   0.00000   0.00000   0.00000   0.00000   0.00000   0.00000
     0.365345509         0.518809336         0.836921789  H85   1.00000   1.00000   0.00000   0.00000   0.00000   0.00000   0.00000   0.00000
     0.634654596         0.481190664         0.836921789  H86   1.00000   1.00000   0.00000   0.00000   0.00000   0.00000   0.00000   0.00000
     0.481190664         0.365345509         0.163078280  H87   1.00000   1.00000   0.00000   0.00000   0.00000   0.00000   0.00000   0.00000
     0.518809336         0.634654596         0.163078280  H88   1.00000   1.00000   0.00000   0.00000   0.00000   0.00000   0.00000   0.00000
     0.083126982         0.130092706         0.115039372  H89   1.00000   1.00000   0.00000   0.00000   0.00000   0.00000   0.00000   0.00000
     0.916872948         0.869907285         0.115039372  H90   1.00000   1.00000   0.00000   0.00000   0.00000   0.00000   0.00000   0.00000
     0.130092706         0.916872948         0.884960658  H91   1.00000   1.00000   0.00000   0.00000   0.00000   0.00000   0.00000   0.00000
     0.869907285         0.083126982         0.884960658  H92   1.00000   1.00000   0.00000   0.00000   0.00000   0.00000   0.00000   0.00000
     0.416873018         0.630092715         0.884960658  H93   1.00000   1.00000   0.00000   0.00000   0.00000   0.00000   0.00000   0.00000
     0.583127017         0.369907320         0.884960658  H94   1.00000   1.00000   0.00000   0.00000   0.00000   0.00000   0.00000   0.00000
     0.369907320         0.416873018         0.115039372  H95   1.00000   1.00000   0.00000   0.00000   0.00000   0.00000   0.00000   0.00000
     0.630092715         0.583127017         0.115039372  H96   1.00000   1.00000   0.00000   0.00000   0.00000   0.00000   0.00000   0.00000
     0.163141888         0.060012966         0.029431880  H97   1.00000   1.00000   0.00000   0.00000   0.00000   0.00000   0.00000   0.00000
     0.836858112         0.939987003         0.029431880  H98   1.00000   1.00000   0.00000   0.00000   0.00000   0.00000   0.00000   0.00000
     0.060012966         0.836858112         0.970568130  H99   1.00000   1.00000   0.00000   0.00000   0.00000   0.00000   0.00000   0.00000
     0.939987003         0.163141888         0.970568130  H100   1.00000   1.00000   0.00000   0.00000   0.00000   0.00000   0.00000   0.00000
     0.336858147         0.560012997         0.970568130  H101   1.00000   1.00000   0.00000   0.00000   0.00000   0.00000   0.00000   0.00000
     0.663141888         0.439987038         0.970568130  H102   1.00000   1.00000   0.00000   0.00000   0.00000   0.00000   0.00000   0.00000
     0.439987038         0.336858147         0.029431880  H103   1.00000   1.00000   0.00000   0.00000   0.00000   0.00000   0.00000   0.00000
     0.560012997         0.663141888         0.029431880  H104   1.00000   1.00000   0.00000   0.00000   0.00000   0.00000   0.00000   0.00000
     0.046058011         0.453942037         0.526119215  H106   1.00000   1.00000   0.00000   0.00000   0.00000   0.00000   0.00000   0.00000
     0.453942037         0.953942003         0.473880785  H108   1.00000   1.00000   0.00000   0.00000   0.00000   0.00000   0.00000   0.00000
     0.041926711         0.541926746         0.623738422  H110   1.00000   1.00000   0.00000   0.00000   0.00000   0.00000   0.00000   0.00000
     0.541926746         0.958073289         0.376261578  H112   1.00000   1.00000   0.00000   0.00000   0.00000   0.00000   0.00000   0.00000
    -0.009377603         0.889060307         0.620930723  H47   1.00000   1.00000   0.00000   0.00000   0.00000   0.00000   0.00000   0.00000
     0.248068913         0.161243458        -0.058454369  H67   1.00000   1.00000   0.00000   0.00000   0.00000   0.00000   0.00000   0.00000
     0.338756577         0.251931069        -0.058454369  H61   1.00000   1.00000   0.00000   0.00000   0.00000   0.00000   0.00000   0.00000
     0.661243528         0.748068896        -0.058454369  H62   1.00000   1.00000   0.00000   0.00000   0.00000   0.00000   0.00000   0.00000
     0.751931104         0.838756472        -0.058454369  H68   1.00000   1.00000   0.00000   0.00000   0.00000   0.00000   0.00000   0.00000
     0.161243458         0.751931104         1.058454291  H65   1.00000   1.00000   0.00000   0.00000   0.00000   0.00000   0.00000   0.00000
     0.251931069         0.661243528         1.058454291  H63   1.00000   1.00000   0.00000   0.00000   0.00000   0.00000   0.00000   0.00000
     0.748068896         0.338756577         1.058454291  H64   1.00000   1.00000   0.00000   0.00000   0.00000   0.00000   0.00000   0.00000
     0.838756472         0.248068913         1.058454291  H66   1.00000   1.00000   0.00000   0.00000   0.00000   0.00000   0.00000   0.00000
    -0.041197685         0.896873624         0.378713771  H54   1.00000   1.00000   0.00000   0.00000   0.00000   0.00000   0.00000   0.00000
    -0.130876745         0.918268448         0.484625859  H38   1.00000   1.00000   0.00000   0.00000   0.00000   0.00000   0.00000   0.00000
    -0.110939693         1.009377603         0.379069277  H46   1.00000   1.00000   0.00000   0.00000   0.00000   0.00000   0.00000   0.00000
    -0.081731552         1.130876745         0.515374141  H40   1.00000   1.00000   0.00000   0.00000   0.00000   0.00000   0.00000   0.00000
    -0.103126376         1.041197755         0.621286229  H56   1.00000   1.00000   0.00000   0.00000   0.00000   0.00000   0.00000   0.00000
     0.009377596         1.110939693         0.620930723  H48   1.00000   1.00000   0.00000   0.00000   0.00000   0.00000   0.00000   0.00000
     0.041197729         1.103126376         0.378713771  H53   1.00000   1.00000   0.00000   0.00000   0.00000   0.00000   0.00000   0.00000
     0.130876780         1.081731552         0.484625859  H37   1.00000   1.00000   0.00000   0.00000   0.00000   0.00000   0.00000   0.00000
     0.407539620         0.092460371        -0.102351655  H69   1.00000   1.00000   0.00000   0.00000   0.00000   0.00000   0.00000   0.00000
     0.592460345         0.907539655        -0.102351655  H70   1.00000   1.00000   0.00000   0.00000   0.00000   0.00000   0.00000   0.00000
     0.092460371         0.592460345         1.102351655  H71   1.00000   1.00000   0.00000   0.00000   0.00000   0.00000   0.00000   0.00000
     0.907539655         0.407539620         1.102351655  H72   1.00000   1.00000   0.00000   0.00000   0.00000   0.00000   0.00000   0.00000
    -0.046057997         0.546057997         0.526119215  H105   1.00000   1.00000   0.00000   0.00000   0.00000   0.00000   0.00000   0.00000
     0.546057997         1.046057997         0.473880785  H107   1.00000   1.00000   0.00000   0.00000   0.00000   0.00000   0.00000   0.00000
    -0.041926711         0.458073289         0.623738422  H109   1.00000   1.00000   0.00000   0.00000   0.00000   0.00000   0.00000   0.00000
     0.458073289         1.041926711         0.376261578  H111   1.00000   1.00000   0.00000   0.00000   0.00000   0.00000   0.00000   0.00000
